p edge 50 124
e 1 10
e 1 12
e 1 27
e 1 38
e 1 42
e 2 12
e 2 22
e 2 25
e 2 27
e 3 11
e 3 17
e 3 24
e 3 30
e 3 34
e 3 40
e 4 6
e 4 31
e 4 45
e 4 48
e 4 49
e 5 17
e 5 21
e 5 28
e 5 34
e 5 41
e 6 18
e 6 33
e 6 48
e 7 30
e 7 49
e 7 50
e 8 22
e 8 30
e 8 35
e 9 11
e 9 28
e 9 35
e 9 37
e 10 13
e 10 33
e 10 38
e 10 41
e 10 45
e 11 27
e 12 17
e 12 23
e 13 19
e 13 21
e 13 37
e 14 18
e 14 19
e 14 49
e 16 26
e 16 44
e 16 49
e 17 23
e 17 32
e 17 36
e 17 48
e 17 49
e 18 23
e 18 33
e 18 43
e 18 48
e 19 32
e 19 40
e 19 44
e 19 45
e 19 49
e 20 32
e 20 37
e 20 39
e 20 40
e 21 34
e 21 38
e 22 29
e 23 28
e 23 40
e 24 30
e 24 38
e 24 50
e 25 42
e 25 43
e 25 45
e 26 35
e 26 40
e 26 42
e 27 30
e 27 50
e 28 29
e 28 37
e 29 30
e 29 35
e 29 37
e 29 40
e 29 47
e 29 49
e 30 35
e 30 43
e 31 38
e 31 43
e 31 45
e 31 46
e 32 34
e 32 40
e 33 43
e 34 46
e 35 46
e 35 47
e 36 38
e 36 45
e 37 39
e 37 45
e 38 49
e 39 41
e 40 47
e 40 48
e 41 45
e 42 46
e 44 50
e 45 47
e 45 49
e 45 50
e 48 49
